29106
1162
13734
124437
443086
13554
2589
6657
2805
129293
79
127048
63335
13205
29412
279
327
167
705
321
62563
30042
5940
935
126468
122270
0
1092
444584
6016
29800
1129
68
2010
28965
107
27330
248241
48
122885
735
29102
245660
2354
444255
2452
859
123931
2267
125006
869
245489
11914
924
1717
120
248257
13144
243890
2540
1029
12720
6431
1337
5729
5372
245496
27672
191
876
60979
87
831
435854
131006
1064
12161
493
65
3050
12598
66722
212
12680
6228
555
442656
2225
179
14170
2203
13866
5574
241176
559
524
14050
15495
13062
63314
